InboundTrucks  = 12;
OutboundTrucks = 8;
InboundDoors   = 4;
OutboundDoors  = 4;
ReleaseTime    = [97,49,82,60,52,111,25,25,86,50,7,54];
UnloadTime     = [34,34,21,36,30,26,27,35,40,39,44,40];
LoadTime       = [13,8,11,10,12,7,11,12];
TransferTime   = [| 0,0,25,0,38,40,41,27 | 0,21,50,16,12,0,0,10 | 0,0,0,17,0,0,24,22 | 37,25,29,0,22,29,0,31 | 39,0,32,13,49,0,34,0 | 43,0,0,0,0,0,0,0 | 32,0,0,0,47,30,10,15 | 0,34,46,30,16,0,0,26 | 48,0,29,0,0,21,45,0 | 0,0,0,0,0,32,0,39 | 48,18,11,0,16,0,46,20 | 0,0,13,0,0,0,0,0 |];
